Set parameter TokenServer to value "hpc-licenses.hpcc.usc.edu"
Set parameter TimeLimit to value 3600
Gurobi Optimizer version 9.5.1 build v9.5.1rc2 (linux64)
Thread count: 20 physical cores, 20 logical processors, using up to 20 threads
Optimize a model with 6007 rows, 4529 columns and 24534 nonzeros
Model fingerprint: 0x559be4cb
Variable types: 4506 continuous, 23 integer (23 binary)
Coefficient statistics:
  Matrix range     [1e+00, 1e+00]
  Objective range  [7e-04, 1e+00]
  Bounds range     [1e+00, 1e+00]
  RHS range        [1e+00, 1e+02]
Found heuristic solution: objective 296.7417388
Presolve removed 1514 rows and 1511 columns
Presolve time: 0.07s
Presolved: 4493 rows, 3018 columns, 21993 nonzeros
Variable types: 2998 continuous, 20 integer (20 binary)

Root relaxation: objective 3.011237e+02, 2622 iterations, 0.13 seconds (0.13 work units)

    Nodes    |    Current Node    |     Objective Bounds      |     Work
 Expl Unexpl |  Obj  Depth IntInf | Incumbent    BestBd   Gap | It/Node Time

     0     0  301.12366    0    2  296.74174  301.12366  1.48%     -    0s
     0     0  300.95769    0    2  296.74174  300.95769  1.42%     -    0s
H    0     0                     300.2920701  300.66846  0.13%     -    0s
     0     0  300.29207    0    5  300.29207  300.29207  0.00%     -    0s

Cutting planes:
  Gomory: 6
  MIR: 114
  Flow cover: 4
  RLT: 7

Explored 1 nodes (3139 simplex iterations) in 0.50 seconds (0.35 work units)
Thread count was 20 (of 20 available processors)

Solution count 2: 300.292 296.742 

Optimal solution found (tolerance 1.00e-04)
Best objective 3.002920700857e+02, best bound 3.002920700857e+02, gap 0.0000%



#########node  1
V1.8
#########node  2
0.0,1.0
#########node  3
1.0,0.0


Total Solving Time 0.845374584197998
obj value 300.2920700857171
Policy Regret train (Sum) 0.5246451196991215
Best Treatment Found train (%) 90.2
treatment classification acc train (%) 68.4
Policy Regret test (Sum) 110.93848330628616
Best Treatment Found test (%) 62.73
treatment classification acc test (%) 67.58999999999999
